(set-info :smt-lib-version 2.6)
(set-logic QF_S)
(set-info :source |
Generated by: Murphy Berzish, Mitja Kulczynski, Federico Mora, Florin Manea, Joel Day, Dirk Nowotka, Vijay Ganesh, Zhengyang Lu
Generated on: 2020-10-01
Description: Translated from a collection of real-world regex queries, AutomataArk, collected by Loris D’Antoni and Fang Wang: https://github.com/lorisdanto/automatark
Application: Evaluate solvers on real-world regex queries
Target solver: Z3str3RE, CVC4, OSTRICH, Z3seq, Z3str3, Z3-Trau
Publications: Berzish, M., Kulczynski, M., Mora, F., Manea, F., Day, J. D., Nowotka, D., & Ganesh, V. (2021, July). An SMT solver for regular expressions and linear arithmetic over string length. In CAV 2021.
|)
(set-info :license "https://creativecommons.org/licenses/by/4.0/")
(set-info :category "industrial")
(set-info :status sat)

(declare-const X String)
(assert (not (str.in_re X (re.++ ((_ re.loop 3 3) (re.++ (re.union (re.++ (str.to_re "25") (re.range "0" "5")) (re.++ (re.opt (re.union (re.++ (str.to_re "2") (re.range "0" "4")) (re.++ (re.opt (str.to_re "1")) (re.range "0" "9")))) (re.range "0" "9"))) (str.to_re "."))) (re.union (re.++ (str.to_re "25") (re.range "0" "5")) (re.++ (re.opt (re.union (re.++ (str.to_re "2") (re.range "0" "4")) (re.++ (re.opt (str.to_re "1")) (re.range "0" "9")))) (re.range "0" "9"))) (str.to_re "\u{a}")))))
(assert (not (str.in_re X (re.++ (re.* (re.union (str.to_re "]") (str.to_re "\u{22}"))) (re.* (re.comp (str.to_re "["))) (str.to_re "[/url]\u{a}[url") (re.opt (str.to_re "=")) (re.opt (str.to_re "\u{22}")) (re.opt (str.to_re "\u{22}")) (str.to_re "]")))))
(assert (not (str.in_re X (re.++ ((_ re.loop 1 1) (re.range "1" "9")) ((_ re.loop 3 3) (re.range "0" "9")) (re.opt (re.union (str.to_re " ") (str.to_re "\u{9}") (str.to_re "\u{a}") (str.to_re "\u{c}") (str.to_re "\u{d}"))) ((_ re.loop 2 2) (re.union (re.range "a" "z") (re.range "A" "Z"))) (str.to_re "\u{a}")))))
(assert (str.in_re X (re.++ (str.to_re "Keylogger") (re.+ (re.union (re.range "0" "9") (re.range "A" "Z") (re.range "a" "z") (str.to_re "_"))) (str.to_re "Owner:") (re.range "0" "9") (str.to_re "BetaWordixqshv/qzccsServer\u{0}MyBYReferer:www.ccnnlc.com\u{13}\u{4}\u{0}\u{a}"))))
(check-sat)

(exit)
